
--- Job bchfcnet.gms Start 02/09/22 15:13:04 34.3.0 rac355f3 WEX-WEI x86 64bit/MS Windows
--- Applying:
    C:\GAMS\34\gmsprmNT.txt
--- GAMS Parameters defined
    Input C:\Users\dekhi\Desktop\gamsworld\FCNetLib\test\bchfcnet.gms
    PageSize 0
    ScrDir C:\Users\dekhi\Desktop\gamsworld\FCNetLib\test\225a\
    SysDir C:\GAMS\34\
    LogOption 3
    ErrMsg 1
    ErrorLog 99
    IDE 1
    ResLim 3600
    LstTitleLeftAligned 1
Licensee: Eval License                                   S211214|0002AW-GEN
          Ostfalia Hochschule fuer angewandte Wissenschaften        DCE1645
          C:\Users\dekhi\Documents\GAMS\gamslice.txt
          License Admin: Mohamed Ali Dekhil, dekhil.medali@gmail.com       
          Evaluation license: Not for commercial or production use
GAMS 34.3.0   Copyright (C) 1987-2021 GAMS Development. All rights reserved
--- Starting compilation
--- bchfcnet.gms(34) 2 Mb
--- . decl.gms(15) 2 Mb
--- bchfcnet.gms(38) 2 Mb
--- . sp150x300.inc(646) 3 Mb
--- bchfcnet.gms(67) 3 Mb
--- . equs.gms(20) 3 Mb
--- bchfcnet.gms(97) 3 Mb
--- call rm -f bchout_i.gdx startcut.txt startheur.txt cuthist.gdx agap.txt rgap.txt cntfail.txt
--- bchfcnet.gms(118) 3 Mb
--- Starting execution: elapsed 0:00:00.087
--- bchfcnet.gms(704) 4 Mb
--- GDX File (execute_unload) C:\Users\dekhi\Desktop\gamsworld\FCNetLib\test\net.gdx
--- bchfcnet.gms(795) 4 Mb
--- GDXin=C:\Users\dekhi\Desktop\gamsworld\FCNetLib\test\points\sp150x300.gdx
--- GDX File (execute_load) C:\Users\dekhi\Desktop\gamsworld\FCNetLib\test\points\sp150x300.gdx
--- Generating MIP model master
--- bchfcnet.gms(799) 4 Mb
---   451 rows  601 columns  1,801 non-zeroes
---   300 discrete-columns
--- Executing CPLEX (Solvelink=2): elapsed 0:00:00.108

IBM ILOG CPLEX   34.3.0 rac355f3 Released Feb 25, 2021 WEI x86 64bit/MS Window

--- GAMS/Cplex Link licensed for continuous and discrete problems.

Reading parameter(s) from "C:\Users\dekhi\Desktop\gamsworld\FCNetLib\test\cplex.op2"
>>  mipstart 1
Finished reading from "C:\Users\dekhi\Desktop\gamsworld\FCNetLib\test\cplex.op2"

--- Space for names approximately 0.02 Mb
--- Use option 'names no' to turn use of names off
--- GMO memory 0.62 Mb (peak 0.63 Mb)
--- Dictionary memory 0.00 Mb
--- Cplex 20.1.0.0 link memory 0.02 Mb (peak 0.07 Mb)
--- Starting Cplex

Version identifier: 20.1.0.0 | 2020-11-10 | 9bedb6d68
CPXPARAM_Threads                                 1
CPXPARAM_MIP_Display                             4
CPXPARAM_TimeLimit                               3600
CPXPARAM_MIP_Tolerances_AbsMIPGap                0
CPXPARAM_MIP_Tolerances_MIPGap                   0
Generic callback                                 0x50
Processing 1 MIP starts.
MIP start 'm1' defined solution with objective 30918.0000.
1 of 1 MIP starts provided solutions.
MIP start 'm1' defined initial solution with objective 30918.0000.
Tried aggregator 3 times.
MIP Presolve eliminated 196 rows and 217 columns.
MIP Presolve added 4 rows and 0 columns.
MIP Presolve modified 135 coefficients.
Aggregator did 55 substitutions.
Reduced MIP has 203 rows, 297 columns, and 610 nonzeros.
Reduced MIP has 157 binaries, 0 generals, 0 SOSs, and 0 indicators.
Presolve time = 0.00 sec. (2.29 ticks)
Probing fixed 1 vars, tightened 0 bounds.
Probing time = 0.00 sec. (0.07 ticks)
Tried aggregator 1 time.
Detecting symmetries...
MIP Presolve eliminated 5 rows and 7 columns.
Reduced MIP has 198 rows, 289 columns, and 597 nonzeros.
Reduced MIP has 152 binaries, 0 generals, 0 SOSs, and 0 indicators.
Presolve time = 0.00 sec. (0.60 ticks)
Probing time = 0.00 sec. (0.06 ticks)
Clique table members: 10.
MIP emphasis: balance optimality and feasibility.
MIP search method: dynamic search.
Parallel mode: none, using 1 thread.
Tried aggregator 1 time.
LP Presolve eliminated 137 rows and 171 columns.
Aggregator did 16 substitutions.
Reduced LP has 45 rows, 102 columns, and 212 nonzeros.
Presolve time = 0.00 sec. (0.17 ticks)
Initializing dual steep norms . . .

Iteration log . . .
Iteration:     1   Scaled dual infeas =           520.000000
Iteration:     3   Dual objective     =          7251.500000
Initializing dual steep norms . . .
Root relaxation solution time = 0.00 sec. (0.37 ticks)

        Nodes                                         Cuts/
   Node  Left     Objective  IInf  Best Integer    Best Bound    ItCnt     Gap

*     0+    0                        30918.0000     5812.0000            81.20%
Found incumbent of value 30918.000000 after 0.01 sec. (4.89 ticks)
      0     0    14832.5682    29    30918.0000    14832.5682       37   52.03%
      0     0    24848.2242    35    30918.0000      Cuts: 90       91   19.63%
      0     0    29836.4364    17    30918.0000      Cuts: 72      121    3.50%
      0     0    30512.6107     2    30918.0000      Cuts: 42      134    1.31%
      0     0    30917.9900     1    30918.0000      Cuts: 12      143    0.00%
      0     0        cutoff          30918.0000                    146    0.00%
Elapsed time = 0.05 sec. (26.43 ticks, tree = 0.01 MB, solutions = 1)

Cover cuts applied:  17
Implied bound cuts applied:  6
Flow cuts applied:  47
Mixed integer rounding cuts applied:  20
Flow path cuts applied:  1
Multi commodity flow cuts applied:  5
Lift and project cuts applied:  1
Gomory fractional cuts applied:  31

Root node processing (before b&c):
  Real time             =    0.05 sec. (26.45 ticks)
Sequential b&c:
  Real time             =    0.00 sec. (0.00 ticks)
                          ------------
Total (root+branch&cut) =    0.05 sec. (26.45 ticks)

--- MIP status (101): integer optimal solution.
--- Cplex Time: 0.05sec (det. 26.45 ticks)

--- Fixing integer variables and solving final LP...

Version identifier: 20.1.0.0 | 2020-11-10 | 9bedb6d68
CPXPARAM_Advance                                 2
CPXPARAM_Threads                                 1
CPXPARAM_MIP_Display                             4
CPXPARAM_TimeLimit                               3600
CPXPARAM_MIP_Tolerances_AbsMIPGap                0
CPXPARAM_MIP_Tolerances_MIPGap                   0
Tried aggregator 1 time.
LP Presolve eliminated 450 rows and 601 columns.
All rows and columns eliminated.
Presolve time = 0.00 sec. (0.23 ticks)

--- Fixed MIP status (1): optimal.
--- Cplex Time: 0.00sec (det. 0.40 ticks)


Proven optimal solution
MIP Solution:        30918.000000    (146 iterations, 0 nodes)
Final Solve:         30918.000000    (0 iterations)

Best possible:       30918.000000
Absolute gap:            0.000000
Relative gap:            0.000000

--- Reading solution for model master
*** Status: Normal completion
--- Job bchfcnet.gms Stop 02/09/22 15:13:05 elapsed 0:00:00.197
